
n = 3      ;
Budget  = 500.0; 
cost = [50.0,50.0, 10.0];   
benefitVHT = [762.0, 2083.0, 1923.0];
upgradeName = ["extraLane1", "newLink1", "mod2"];
PairMinusSumVHT = [| 0.0, -10.0, -5.0,
                   | -10.0, 0.0,-3.0,
                   | -5.0, -3.0, 0.0
                  |];

TripleMinusSumVHT_list =   % array3d(Upgrades, Upgrades, Upgrades);
        [
           0.0, -10.0, -5.0,
          -10.0, 0.0,-3.0,
          -5.0, -3.0, 0.0,
           0.0, -10.0, -5.0,
          -10.0, 0.0,-3.0,
          -5.0, -3.0, 0.0,
           0.0, -10.0, -5.0,
          -10.0, 0.0,-3.0,
          -5.0, -3.0, 0.0,
        ];


